Version identifier: 22.1.0.0 | 2022-03-09 | 1a383f8ce
CPXPARAM_Threads                                 1
CPXPARAM_MIP_Strategy_VariableSelect             3
CPXPARAM_TimeLimit                               600
Tried aggregator 1 time.
Reduced MIP has 4520 rows, 18000 columns, and 95862 nonzeros.
Reduced MIP has 14000 binaries, 4000 generals, 0 SOSs, and 0 indicators.
Presolve time = 0.06 sec. (39.25 ticks)
Found incumbent of value 3.127000 after 0.16 sec. (102.82 ticks)
Probing time = 0.01 sec. (5.98 ticks)
Tried aggregator 1 time.
Detecting symmetries...
Reduced MIP has 4520 rows, 18000 columns, and 95862 nonzeros.
Reduced MIP has 14000 binaries, 4000 generals, 0 SOSs, and 0 indicators.
Presolve time = 0.07 sec. (49.58 ticks)
Probing time = 0.01 sec. (5.99 ticks)
Clique table members: 509.
MIP emphasis: balance optimality and feasibility.
MIP search method: dynamic search.
Parallel mode: none, using 1 thread.
Root relaxation solution time = 4.85 sec. (4405.50 ticks)

        Nodes                                         Cuts/
   Node  Left     Objective  IInf  Best Integer    Best Bound    ItCnt     Gap

*     0+    0                            3.1270        0.0000           100.00%
      0     0        0.0000  3698        3.1270        0.0000    11604  100.00%
      0     0        0.0000  1450        3.1270  ZeroHalf: 10    15468  100.00%
*     0+    0                            0.6870        0.0000           100.00%
*     0+    0                            0.6420        0.0000           100.00%
*     0+    0                            0.0540        0.0000           100.00%
      0     0  -1.00000e+75     0        0.0540        0.0000    15468  100.00%
Detecting symmetries...
      0     2        0.0000   662        0.0540        0.0000    15468  100.00%
Elapsed time = 54.09 sec. (48093.86 ticks, tree = 0.01 MB, solutions = 4)
      1     3        0.0000   720        0.0540        0.0000    42165  100.00%
      2     4        0.0000   721        0.0540        0.0000    51492  100.00%
      3     5        0.0000   587        0.0540        0.0000    63355  100.00%
      4     6        0.0000   725        0.0540        0.0000    69961  100.00%
      5     7        0.0000   583        0.0540        0.0000    71805  100.00%
      6     8        0.0000   859        0.0540        0.0000    88061  100.00%
      7     9        0.0000   556        0.0540        0.0000   102546  100.00%
      8    10        0.0000  1487        0.0540        0.0000   106595  100.00%
      9    11        0.0000   555        0.0540        0.0000   106597  100.00%
     10    12        0.0000   514        0.0540        0.0000   113164  100.00%
Elapsed time = 106.08 sec. (95553.98 ticks, tree = 0.30 MB, solutions = 4)
     11    13        0.0000   514        0.0540        0.0000   113166  100.00%
     13    15        0.0000   509        0.0540        0.0000   116545  100.00%
     15    17        0.0000   610        0.0540        0.0000   145415  100.00%
     17    19        0.0000   526        0.0540        0.0000   150309  100.00%
     19    21        0.0000   556        0.0540        0.0000   155416  100.00%
     21    23        0.0000   569        0.0540        0.0000   161868  100.00%
     23    25        0.0000   536        0.0540        0.0000   165872  100.00%
     25    27        0.0000   489        0.0540        0.0000   168754  100.00%
     27    29        0.0000   506        0.0540        0.0000   173888  100.00%
     29    31        0.0000   496        0.0540        0.0000   178620  100.00%
Elapsed time = 133.63 sec. (119638.45 ticks, tree = 1.06 MB, solutions = 4)
     30    32        0.0000   475        0.0540        0.0000   187683  100.00%
     31    33        0.0000  2479        0.0540        0.0000   190348  100.00%
     32    34       -0.0000  1332        0.0540        0.0000   194195  100.00%
     33    35        0.0000   753        0.0540        0.0000   202502  100.00%
     35    37        0.0000   731        0.0540        0.0000   206295  100.00%
     37    39        0.0000   696        0.0540        0.0000   215963  100.00%
     39    41        0.0000   640        0.0540        0.0000   226450  100.00%
     40    42        0.0000   621        0.0540        0.0000   228408  100.00%
     42    44        0.0000   577        0.0540        0.0000   232485  100.00%
     43    45        0.0000   566        0.0540        0.0000   236435  100.00%
Elapsed time = 173.82 sec. (153373.15 ticks, tree = 1.62 MB, solutions = 4)
     44    46        0.0000   552        0.0540        0.0000   237465  100.00%
     45    47        0.0000   528        0.0540        0.0000   241949  100.00%
     46    48        0.0000   494        0.0540        0.0000   250694  100.00%
     47    49        0.0000  1347        0.0540        0.0000   255014  100.00%
     48    50       -0.0000  1018        0.0540        0.0000   256199  100.00%
     50    52       -0.0000   435        0.0540        0.0000   267210  100.00%
     51    53       -0.0000   404        0.0540        0.0000   268612  100.00%
     52    54        0.0000   405        0.0540        0.0000   268615  100.00%
     53    55        0.0000   554        0.0540        0.0000   279793  100.00%
     54    56       -0.0000   349        0.0540        0.0000   283774  100.00%
Elapsed time = 195.63 sec. (172707.21 ticks, tree = 2.07 MB, solutions = 4)
     55    57       -0.0000   361        0.0540        0.0000   287309  100.00%
     56    58       -0.0000  1200        0.0540        0.0000   298772  100.00%
     57    59        0.0000  1179        0.0540        0.0000   300890  100.00%
     58    60        0.0000   294        0.0540        0.0000   309015  100.00%
     59    61        0.0000   337        0.0540        0.0000   311201  100.00%
     60    62       -0.0000   788        0.0540        0.0000   317794  100.00%
     61    63       -0.0000   393        0.0540        0.0000   318749  100.00%
     62    64       -0.0000  1097        0.0540        0.0000   325299  100.00%
     63    65       -0.0000   306        0.0540        0.0000   331628  100.00%
     64    66        0.0000   458        0.0540        0.0000   334085  100.00%
Elapsed time = 231.69 sec. (206136.62 ticks, tree = 2.36 MB, solutions = 4)
     65    67       -0.0000   845        0.0540        0.0000   345512  100.00%
     67    69       -0.0000   438        0.0540        0.0000   349174  100.00%
     68    70       -0.0000   423        0.0540        0.0000   349930  100.00%
     69    71       -0.0000   399        0.0540        0.0000   351397  100.00%
     71    73       -0.0000   542        0.0540        0.0000   354522  100.00%
     73    75       -0.0000   555        0.0540        0.0000   359830  100.00%
     74    76       -0.0000   631        0.0540        0.0000   363546  100.00%
     75    77        0.0000   623        0.0540        0.0000   367684  100.00%
     77    79        0.0000   629        0.0540        0.0000   370984  100.00%
     78    80       -0.0000   664        0.0540        0.0000   372101  100.00%
Elapsed time = 264.69 sec. (235815.96 ticks, tree = 2.86 MB, solutions = 4)
     79    81        0.0000   795        0.0540        0.0000   375904  100.00%
     80    82        0.0000   654        0.0540        0.0000   376109  100.00%
     82    84       -0.0000   580        0.0540        0.0000   380080  100.00%
     84    86       -0.0000   650        0.0540        0.0000   382761  100.00%
     85    87       -0.0000   621        0.0540        0.0000   386122  100.00%
     86    88       -0.0000   637        0.0540        0.0000   387718  100.00%
     87    89       -0.0000   766        0.0540        0.0000   390114  100.00%
     88    90       -0.0000   612        0.0540        0.0000   391649  100.00%
     90    92       -0.0000   738        0.0540        0.0000   393796  100.00%
     92    94       -0.0000   600        0.0540        0.0000   395039  100.00%
Elapsed time = 291.05 sec. (258865.92 ticks, tree = 3.47 MB, solutions = 4)
     94    96       -0.0000   598        0.0540        0.0000   397024  100.00%
     96    98       -0.0000   660        0.0540        0.0000   398677  100.00%
     97    99       -0.0000   608        0.0540        0.0000   399776  100.00%
     98   100       -0.0000   633        0.0540        0.0000   400688  100.00%
     99   101       -0.0000   483        0.0540        0.0000   402487  100.00%
    100   102       -0.0000   477        0.0540        0.0000   402994  100.00%
    102   104       -0.0000   526        0.0540        0.0000   404802  100.00%
    103   105       -0.0000   484        0.0540        0.0000   409117  100.00%
    104   106       -0.0000   480        0.0540        0.0000   411469  100.00%
    106   108       -0.0000   575        0.0540        0.0000   417382  100.00%
Elapsed time = 315.39 sec. (280237.79 ticks, tree = 4.05 MB, solutions = 4)
    107   109       -0.0000   532        0.0540        0.0000   421846  100.00%
    108   110       -0.0000   456        0.0540        0.0000   422927  100.00%
    109   111       -0.0000   521        0.0540        0.0000   427785  100.00%
    110   112       -0.0000   438        0.0540        0.0000   429068  100.00%
    111   113        0.0000   469        0.0540        0.0000   430293  100.00%
    112   114       -0.0000   766        0.0540        0.0000   435492  100.00%
    113   115       -0.0000   477        0.0540        0.0000   437926  100.00%
    114   116       -0.0000   573        0.0540        0.0000   444338  100.00%
    115   117        0.0000   416        0.0540        0.0000   474739  100.00%
    116   118       -0.0000   372        0.0540        0.0000   482578  100.00%
Elapsed time = 358.25 sec. (319150.08 ticks, tree = 4.42 MB, solutions = 4)
    117   119       -0.0000   427        0.0540        0.0000   490318  100.00%
    118   120       -0.0000   442        0.0540        0.0000   498464  100.00%
    119   121       -0.0000   487        0.0540        0.0000   509235  100.00%
    120   122       -0.0000   634        0.0540        0.0000   515736  100.00%
    121   123        0.0000   490        0.0540        0.0000   515825  100.00%
    122   124       -0.0000   564        0.0540        0.0000   522145  100.00%
    123   125       -0.0000   622        0.0540        0.0000   528481  100.00%
    125   127       -0.0000   476        0.0540        0.0000   532373  100.00%
    126   128        0.0000   420        0.0540        0.0000   537095  100.00%
    128   130       -0.0000   659        0.0540        0.0000   554660  100.00%
Elapsed time = 400.28 sec. (356534.11 ticks, tree = 4.91 MB, solutions = 4)
    132   134       -0.0000   421        0.0540        0.0000   557788  100.00%
    136   138       -0.0000   362        0.0540        0.0000   561820  100.00%
    139   141       -0.0000   368        0.0540        0.0000   568649  100.00%
    140   142       -0.0000   408        0.0540        0.0000   575613  100.00%
    143   145       -0.0000   673        0.0540        0.0000   587937  100.00%
    146   148        0.0000   348        0.0540        0.0000   592998  100.00%
    149   151       -0.0000   330        0.0540        0.0000   599169  100.00%
    152   154       -0.0000   431        0.0540        0.0000   603801  100.00%
    154   156       -0.0000   425        0.0540        0.0000   609539  100.00%
    157   159       -0.0000   392        0.0540        0.0000   617389  100.00%
Elapsed time = 455.99 sec. (406045.89 ticks, tree = 6.11 MB, solutions = 4)
    159   161       -0.0000   388        0.0540        0.0000   623272  100.00%
    160   162       -0.0000   413        0.0540        0.0000   625698  100.00%
    163   165       -0.0000   374        0.0540        0.0000   632773  100.00%
    166   168        0.0000   605        0.0540        0.0000   638559  100.00%
    170   172       -0.0000   583        0.0540        0.0000   648915  100.00%
    172   174       -0.0000   767        0.0540        0.0000   655159  100.00%
    175   177       -0.0000   282        0.0540        0.0000   659987  100.00%
    177   179       -0.0000   369        0.0540        0.0000   671341  100.00%
    180   182        0.0000   246        0.0540        0.0000   675505  100.00%
    185   187       -0.0000   246        0.0540        0.0000   679659  100.00%
Elapsed time = 526.72 sec. (467160.41 ticks, tree = 7.27 MB, solutions = 4)
    189   191       -0.0000   346        0.0540        0.0000   687825  100.00%
    191   193       -0.0000   752        0.0540        0.0000   694973  100.00%
    193   195       -0.0000   832        0.0540        0.0000   701806  100.00%
    196   198       -0.0000   510        0.0540        0.0000   707282  100.00%
    198   200       -0.0000   431        0.0540        0.0000   713510  100.00%
Starting limited solution polishing.
*   200+  200                            0.0020        0.0000           100.00%
    200   202       -0.0000   438        0.0020        0.0000   720159  100.00%
    203   205       -0.0000   375        0.0020        0.0000   726477  100.00%
    207   209       -0.0000   398        0.0020        0.0000   732450  100.00%
    209   211        0.0000   441        0.0020        0.0000   739350  100.00%
    212   214       -0.0000   229        0.0020        0.0000   745155  100.00%
Elapsed time = 578.99 sec. (512826.01 ticks, tree = 8.41 MB, solutions = 5)
    216   218       -0.0000   160        0.0020        0.0000   752274  100.00%
    219   221       -0.0000   568        0.0020        0.0000   759144  100.00%
    222   224       -0.0000   461        0.0020        0.0000   766069  100.00%

Zero-half cuts applied:  5

Root node processing (before b&c):
  Real time             =   54.04 sec. (48064.32 ticks)
Sequential b&c:
  Real time             =  545.97 sec. (483073.07 ticks)
                          ------------
Total (root+branch&cut) =  600.01 sec. (531137.39 ticks)
Primal number of violations:	0.002
Dual number of violations:	0
Status:	Feasible
Time:	599.93
Sequence:
	18
	2
	4
	18
	2
	4
	18
	2
	4
	18
	2
	4
	18
	2
	3
	18
	2
	4
	18
	2
	4
	18
	2
	4
	18
	2
	3
	18
	4
	3
	8
	16
	6
	17
	14
	4
	8
	16
	13
	8
	16
	13
	8
	16
	4
	17
	14
	6
	8
	16
	4
	17
	14
	13
	8
	16
	13
	17
	14
	13
	17
	14
	13
	17
	14
	5
	9
	14
	0
	9
	14
	0
	9
	14
	0
	9
	16
	0
	9
	7
	13
	8
	14
	13
	17
	14
	6
	8
	16
	13
	17
	7
	5
	8
	16
	13
	17
	7
	6
	17
	7
	6
	17
	7
	3
	17
	6
	3
	8
	7
	4
	17
	7
	5
	8
	7
	5
	8
	7
	5
	19
	7
	5
	8
	14
	13
	12
	7
	1
	12
	6
	10
	0
	15
	10
	0
	15
	10
	0
	2
	1
	11
	15
	1
	11
	2
	19
	11
	2
	19
	11
	2
	1
	11
	2
	1
	0
	15
	10
	4
	0
	9
	16
	0
	9
	6
	14
	8
	5
	6
	10
	12
	5
	19
	12
	14
	1
	12
	7
	19
	12
	16
	19
	12
	14
	19
	12
	16
	19
	12
	7
	1
	12
	4
	10
	0
	15
	10
	0
	15
	10
	0
	15
	10
	0
	15
	10
	0
	15
	10
	0
	15
	10
	0
	15
	10
	0
	15
	1
	0
	16
	1
	12
	7
	19
	12
	14
	1
	12
	16
	1
	0
	2
	10
	0
	15
	1
	16
	12
	1
	7
	12
	19
	7
	12
	19
	7
	0
	9
	5
	3
	18
	4
	5
	8
	16
	3
	8
	16
	13
	17
	14
	13
	8
	16
	3
	17
	3
	4
	18
	2
	4
	10
	12
	5
	19
	12
	7
	1
	12
	7
	19
	12
	7
	19
	12
	7
	6
	8
	7
	5
	8
	16
	4
	17
	14
	13
	8
	7
	5
	8
	7
	6
	17
	14
	6
	8
	7
	5
	8
	7
	3
	8
	16
	4
	17
	7
	5
	8
	7
	5
	8
	16
	13
	8
	16
	3
	17
	7
	5
	8
	16
	6
	17
	7
	6
	8
	16
	13
	17
	14
	3
	17
	7
	3
	17
	14
	3
	17
	14
	13
	17
	14
	13
	8
	16
	6
	8
	16
	6
	17
	14
	6
	8
	14
	4
	12
	10
	4
	2
	18
	3
	2
	18
	5
	2
	10
	4
	5
	10
	12
	5
	19
	12
	7
	1
	12
	3
	1
	11
	15
	1
	11
	15
	1
	11
	13
	9
	11
	6
	9
	11
	13
	9
	11
	13
	9
	11
	13
	9
	11
	13
	9
	0
	5
	19
	12
	7
	19
	12
	7
	1
	15
	11
	1
	15
	11
	1
	15
	11
	1
	15
	11
	1
	15
	11
	1
	5
	12
	10
	4
	2
	18
	4
	2
	18
	3
	2
	18
	3
	3
	8
	16
	13
	8
	16
	3
	9
	11
	4
	9
	11
	13
	9
	11
	13
	9
	11
	13
	9
	11
	4
	9
	11
	13
	9
	11
	13
	9
	11
	4
	9
	11
	13
	9
	0
	14
	19
	12
	16
	19
	12
	4
	10
	2
	4
	18
	2
	3
	18
